0 4 -1 1 8 6 2 4 10 -1 
1 8 2 2 3 8 10 7 0 -1 
-1 10 2 10 10 4 2 0 6 -1 
9 9 2 -1 7 7 2 2 10 -1 
8 7 6 5 0 10 6 5 3 -1 
7 -1 1 10 1 9 5 0 4 -1 
-1 1 3 -1 3 6 8 7 3 -1 
8 1 3 2 9 7 9 10 5 -1 
5 2 9 7 4 3 8 0 8 -1 
3 2 3 5 8 4 -1 9 7 -1 
1 5 6 0 5 6 0 9 10 -1 
-1 4 -1 1 7 8 7 1 6 -1 
5 1 5 7 -1 3 2 -1 5 -1 
-1 0 4 6 4 0 -1 10 10 -1 
-1 6 8 1 0 2 -1 1 1 -1 
2 9 7 3 9 9 4 8 8 -1 
1 7 3 3 4 -1 9 10 9 -1 
7 5 2 4 10 9 9 4 9 -1 
-1 0 7 9 3 10 8 7 10 -1 
10 6 2 6 3 6 7 10 4 -1 
3 10 -1 1 7 3 2 8 9 -1 
6 5 7 -1 6 10 -1 6 1 -1 
6 -1 10 3 5 5 2 9 5 -1 
8 6 5 8 8 8 3 7 6 -1 
1 8 2 -1 -1 3 10 7 4 -1 
5 6 -1 4 -1 0 3 -1 4 -1 
0 10 7 7 4 2 1 8 9 -1 
7 1 2 -1 2 -1 4 8 4 -1 
6 1 2 -1 -1 1 2 9 5 -1 
4 6 3 8 10 -1 0 9 4 -1 
5 6 5 -1 0 3 1 7 9 -1 
6 3 9 0 10 5 0 4 -1 -1 
2 4 7 -1 -1 7 6 6 8 -1 
2 -1 3 9 2 -1 0 5 10 -1 
-1 2 8 6 2 8 10 5 5 -1 
-1 9 3 9 2 7 3 1 1 -1 
2 7 5 8 8 4 8 -1 10 -1 
10 0 10 -1 6 7 6 10 8 -1 
8 10 7 4 -1 3 8 10 6 -1 
9 -1 9 9 1 5 6 3 5 -1 
6 -1 1 2 5 6 5 0 3 -1 
5 2 1 3 7 6 6 10 0 -1 
6 1 2 10 6 9 0 4 2 -1 
4 4 9 -1 8 -1 3 7 8 -1 
1 9 3 2 5 6 3 7 10 -1 
6 9 6 -1 7 7 0 7 1 -1 
1 2 9 8 8 7 7 7 1 -1 
9 -1 8 7 7 -1 6 1 -1 -1 
2 6 7 2 9 1 2 9 10 -1 
3 5 2 10 6 8 7 5 6 -1 
